asp/input/in_30_15_10_1.lp
#const n = 30.
#const k = 15.
#const h = 10.
tile(1,4,11).
tile(2,4,7).
tile(3,9,5).
tile(4,9,9).
tile(5,5,3).
tile(6,7,9).
tile(7,9,8).
tile(8,3,4).
tile(9,13,14).
tile(10,13,3).
tile(11,9,4).
tile(12,15,2).
tile(13,4,8).
tile(14,13,9).
tile(15,15,6).
tile(16,2,7).
tile(17,13,5).
tile(18,4,2).
tile(19,7,10).
tile(20,15,11).
tile(21,15,11).
tile(22,11,4).
tile(23,10,1).
tile(24,11,2).
tile(25,9,6).
tile(26,7,6).
tile(27,10,15).
tile(28,10,10).
tile(29,5,2).
tile(30,11,3).
