instances/in_30_15_10_1.dzn
n = 30;
k = 15;
h = 10;
tiles = array2d(1..n, 1..2,
[ 4,11
, 4,7
, 9,5
, 9,9
, 5,3
, 7,9
, 9,8
, 3,4
, 13,14
, 13,3
, 9,4
, 15,2
, 4,8
, 13,9
, 15,6
, 2,7
, 13,5
, 4,2
, 7,10
, 15,11
, 15,11
, 11,4
, 10,1
, 11,2
, 9,6
, 7,6
, 10,15
, 10,10
, 5,2
, 11,3
]);